experiments/mac_ortools/detailed-output/inst-11-625526429.dzn

A = 2;
T = 98;
X = 3;
Y = 3;
Z = 5;
building = array2d(0..2, 0..2, [0, 0, 0, 0, 3, 0, 0, 0, 0]);
